
Gurobi 12.0.1 (win64) logging started Fri Nov 21 14:24:22 2025

Set parameter LogFile to value "data\dblrp\grb_log_ef_s30_ts0_f5_c10_r2.0_iss1_bt1_nsp1000_nse2_sd7.log"
Set parameter NodefileStart to value 0.5
Set parameter NodefileDir to value "node_files\s30_ts0"
Set parameter MIPGap to value 0.0001
Set parameter TimeLimit to value 3600
Set parameter Threads to value 1
Gurobi Optimizer version 12.0.1 build v12.0.1rc0 (win64 - Windows 11.0 (26100.2))

CPU model: Intel(R) Core(TM) i9-14900K, instruction set [SSE2|AVX|AVX2]
Thread count: 24 physical cores, 32 logical processors, using up to 1 threads

Non-default parameters:
TimeLimit  3600
NodefileStart  0.5
Threads  1

Optimize a model with 12774600 rows, 4274255 columns and 35212500 nonzeros
Model fingerprint: 0x78ae330c
Variable types: 0 continuous, 4274255 integer (4252505 binary)
Coefficient statistics:
  Matrix range     [1e+00, 7e+01]
  Objective range  [3e-01, 1e+01]
  Bounds range     [1e+00, 4e+01]
  RHS range        [1e+00, 7e+01]
Presolve removed 12758820 rows and 4243834 columns
Presolve time: 4.39s
Presolved: 15780 rows, 30421 columns, 135866 nonzeros
Variable types: 0 continuous, 30421 integer (23541 binary)
Found heuristic solution: objective -50.0000000
Found heuristic solution: objective -49.5244098
Found heuristic solution: objective -39.6229655
Performing another presolve...
Presolve removed 12027 rows and 16004 columns
Presolve time: 0.35s
Found heuristic solution: objective -38.5429596

Root simplex log...

Iteration    Objective       Primal Inf.    Dual Inf.      Time
       0    1.7107354e+03   7.122050e+03   0.000000e+00      8s
    2669    7.7061222e+01   0.000000e+00   0.000000e+00      8s

Root relaxation: objective 7.706122e+01, 2669 iterations, 0.01 seconds (0.03 work units)
Total elapsed time = 8.20s (DegenMoves)

    Nodes    |    Current Node    |     Objective Bounds      |     Work
 Expl Unexpl |  Obj  Depth IntInf | Incumbent    BestBd   Gap | It/Node Time

     0     0   77.06122    0  487  -38.54296   77.06122   300%     -    8s
     0     0   75.60368    0  446  -38.54296   75.60368   296%     -    8s
     0     0   72.38692    0  175  -38.54296   72.38692   288%     -    8s
     0     0   72.38692    0  174  -38.54296   72.38692   288%     -    8s
H    0     0                      -8.5429596   72.38692   947%     -    8s
H    0     0                      61.1806710   72.38692  18.3%     -    8s
H    0     0                      64.0960926   72.38692  12.9%     -    8s
H    0     0                      64.2442321   72.38692  12.7%     -    8s
H    0     0                      64.6647346   72.38692  11.9%     -    9s
H    0     0                      68.5534345   72.38692  5.59%     -    9s
     0     0   70.42754    0   90   68.55343   70.42754  2.73%     -    9s
     0     0   70.36581    0   87   68.55343   70.36581  2.64%     -    9s
     0     0   70.34118    0   94   68.55343   70.34118  2.61%     -    9s
H    0     0                      69.0432970   70.32577  1.86%     -    9s
     0     0   69.87650    0   79   69.04330   69.87650  1.21%     -    9s
     0     0   69.45229    0   30   69.04330   69.45229  0.59%     -    9s
H    0     0                      69.3562221   69.45229  0.14%     -    9s

Explored 1 nodes (3892 simplex iterations) in 10.79 seconds (15.55 work units)
Thread count was 1 (of 32 available processors)

Solution count 10: 69.3562 69.3562 69.0433 ... -38.543

Optimal solution found (tolerance 1.00e-04)
Best objective 6.935622206144e+01, best bound 6.935622206144e+01, gap 0.0000%

User-callback calls 1726, time in user-callback 2.19 sec
